pRobustCbss/GLKH-1.1/TMP/mtspf.pid6805.atsp
NAME : mtspf.pid6805.gtsp
TYPE : ATSP
DIMENSION : 43
EDGE_WEIGHT_TYPE : EXPLICIT
EDGE_WEIGHT_FORMAT : FULL_MATRIX
EDGE_WEIGHT_SECTION
999999 5368709 5468708 5368731 5368732 5368731 5368730 5368751 5368752 5368751 5368750 5368729 5368728 5368729 5368730 5368737 5368738 5368737 5368736 5368730 5368731 5368730 5368729 5368740 5368739 5368740 5368741 5368758 5368759 5368758 5368757 5368736 5368737 5368736 5368735 5368746 5368747 5368746 5368745 5368716 5368715 5368714 5368715 
5468708 999999 5368709 5368727 5368728 5368727 5368726 5368751 5368752 5368751 5368750 5368723 5368722 5368723 5368724 5368751 5368752 5368751 5368750 5368756 5368757 5368756 5368755 5368712 5368711 5368712 5368713 5368734 5368735 5368734 5368733 5368756 5368757 5368756 5368755 5368760 5368761 5368760 5368759 5368742 5368741 5368742 5368743 
5368709 5468708 999999 5368732 5368731 5368730 5368731 5368732 5368731 5368730 5368731 5368736 5368735 5368734 5368735 5368732 5368731 5368730 5368731 5368737 5368736 5368735 5368736 5368733 5368732 5368733 5368734 5368719 5368720 5368719 5368718 5368737 5368736 5368735 5368736 5368741 5368740 5368739 5368740 5368755 5368754 5368753 5368754 
5368709 5368709 5368709 999999 0 10737418 10737418 5368736 5368737 5368736 5368735 5368716 5368717 5368718 5368717 5368736 5368737 5368736 5368735 5368741 5368742 5368741 5368740 5368727 5368728 5368729 5368728 5368739 5368740 5368739 5368738 5368741 5368742 5368741 5368740 5368745 5368746 5368745 5368744 5368735 5368734 5368733 5368734 
5368709 5368709 5368709 10737418 999999 0 10737418 5368735 5368736 5368735 5368734 5368717 5368718 5368719 5368718 5368735 5368736 5368735 5368734 5368740 5368741 5368740 5368739 5368728 5368729 5368730 5368729 5368738 5368739 5368740 5368739 5368740 5368741 5368740 5368739 5368744 5368745 5368744 5368743 5368734 5368733 5368734 5368735 
5368709 5368709 5368709 10737418 10737418 999999 0 5368736 5368735 5368734 5368735 5368718 5368717 5368718 5368719 5368736 5368735 5368734 5368735 5368741 5368740 5368739 5368740 5368729 5368728 5368729 5368730 5368737 5368738 5368739 5368738 5368741 5368740 5368739 5368740 5368745 5368744 5368743 5368744 5368735 5368734 5368735 5368736 
5368709 5368709 5368709 0 10737418 10737418 999999 5368737 5368736 5368735 5368736 5368717 5368716 5368717 5368718 5368737 5368736 5368735 5368736 5368742 5368741 5368740 5368741 5368728 5368727 5368728 5368729 5368738 5368739 5368738 5368737 5368742 5368741 5368740 5368741 5368746 5368745 5368744 5368745 5368736 5368735 5368734 5368735 
5368709 5368709 5368709 5368734 5368735 5368736 5368735 999999 0 10737418 10737418 5368740 5368741 5368742 5368741 5368726 5368725 5368724 5368725 5368733 5368732 5368731 5368732 5368751 5368752 5368753 5368752 5368727 5368728 5368729 5368728 5368727 5368726 5368725 5368726 5368721 5368722 5368721 5368720 5368755 5368754 5368753 5368754 
5368709 5368709 5368709 5368735 5368736 5368737 5368736 10737418 999999 0 10737418 5368741 5368742 5368743 5368742 5368725 5368724 5368725 5368726 5368732 5368731 5368732 5368733 5368752 5368753 5368754 5368753 5368728 5368729 5368730 5368729 5368726 5368725 5368726 5368727 5368720 5368721 5368720 5368719 5368754 5368753 5368754 5368755 
5368709 5368709 5368709 5368736 5368735 5368736 5368737 10737418 10737418 999999 0 5368742 5368741 5368742 5368743 5368726 5368725 5368726 5368727 5368733 5368732 5368733 5368734 5368753 5368752 5368753 5368754 5368729 5368728 5368729 5368730 5368727 5368726 5368727 5368728 5368721 5368720 5368719 5368720 5368755 5368754 5368755 5368756 
5368709 5368709 5368709 5368735 5368734 5368735 5368736 0 10737418 10737418 999999 5368741 5368740 5368741 5368742 5368727 5368726 5368725 5368726 5368734 5368733 5368732 5368733 5368752 5368751 5368752 5368753 5368728 5368727 5368728 5368729 5368728 5368727 5368726 5368727 5368722 5368721 5368720 5368721 5368756 5368755 5368754 5368755 
5368709 5368709 5368709 5368718 5368719 5368718 5368717 5368742 5368743 5368742 5368741 999999 0 10737418 10737418 5368742 5368743 5368742 5368741 5368747 5368748 5368747 5368746 5368721 5368722 5368723 5368722 5368743 5368744 5368743 5368742 5368747 5368748 5368747 5368746 5368751 5368752 5368751 5368750 5368731 5368730 5368729 5368730 
5368709 5368709 5368709 5368717 5368718 5368717 5368716 5368741 5368742 5368741 5368740 10737418 999999 0 10737418 5368741 5368742 5368741 5368740 5368746 5368747 5368746 5368745 5368722 5368723 5368724 5368723 5368742 5368743 5368744 5368743 5368746 5368747 5368746 5368745 5368750 5368751 5368750 5368749 5368730 5368729 5368728 5368729 
5368709 5368709 5368709 5368718 5368717 5368716 5368717 5368742 5368741 5368740 5368741 10737418 10737418 999999 0 5368742 5368741 5368740 5368741 5368747 5368746 5368745 5368746 5368721 5368722 5368723 5368722 5368741 5368742 5368743 5368742 5368747 5368746 5368745 5368746 5368751 5368750 5368749 5368750 5368731 5368730 5368729 5368730 
5368709 5368709 5368709 5368719 5368718 5368717 5368718 5368743 5368742 5368741 5368742 0 10737418 10737418 999999 5368743 5368742 5368741 5368742 5368748 5368747 5368746 5368747 5368720 5368721 5368722 5368721 5368742 5368743 5368742 5368741 5368748 5368747 5368746 5368747 5368752 5368751 5368750 5368751 5368732 5368731 5368730 5368731 
5368709 5368709 5368709 5368734 5368735 5368736 5368735 5368726 5368727 5368726 5368725 5368740 5368741 5368742 5368741 999999 0 10737418 10737418 5368719 5368718 5368717 5368718 5368751 5368752 5368753 5368752 5368733 5368734 5368733 5368732 5368717 5368718 5368717 5368716 5368721 5368722 5368721 5368720 5368741 5368740 5368739 5368740 
5368709 5368709 5368709 5368735 5368736 5368737 5368736 5368725 5368726 5368727 5368726 5368741 5368742 5368743 5368742 10737418 999999 0 10737418 5368718 5368717 5368718 5368719 5368752 5368753 5368754 5368753 5368732 5368733 5368734 5368733 5368716 5368717 5368716 5368715 5368720 5368721 5368720 5368719 5368740 5368739 5368740 5368741 
5368709 5368709 5368709 5368736 5368735 5368736 5368737 5368724 5368725 5368726 5368725 5368742 5368741 5368742 5368743 10737418 10737418 999999 0 5368719 5368718 5368719 5368720 5368753 5368752 5368753 5368754 5368731 5368732 5368733 5368732 5368717 5368716 5368715 5368716 5368719 5368720 5368719 5368718 5368741 5368740 5368741 5368742 
5368709 5368709 5368709 5368735 5368734 5368735 5368736 5368725 5368726 5368725 5368724 5368741 5368740 5368741 5368742 0 10737418 10737418 999999 5368720 5368719 5368718 5368719 5368752 5368751 5368752 5368753 5368732 5368733 5368732 5368731 5368718 5368717 5368716 5368717 5368720 5368721 5368720 5368719 5368742 5368741 5368740 5368741 
5368709 5368709 5368709 5368739 5368740 5368741 5368740 5368733 5368734 5368733 5368732 5368745 5368746 5368747 5368746 5368719 5368720 5368719 5368718 999999 0 10737418 10737418 5368756 5368757 5368758 5368757 5368740 5368741 5368740 5368739 5368718 5368719 5368718 5368717 5368728 5368729 5368728 5368727 5368734 5368733 5368732 5368733 
5368709 5368709 5368709 5368740 5368741 5368742 5368741 5368732 5368733 5368734 5368733 5368746 5368747 5368748 5368747 5368718 5368719 5368720 5368719 10737418 999999 0 10737418 5368757 5368758 5368759 5368758 5368739 5368740 5368741 5368740 5368717 5368718 5368719 5368718 5368727 5368728 5368729 5368728 5368733 5368732 5368733 5368734 
5368709 5368709 5368709 5368741 5368740 5368741 5368742 5368731 5368732 5368733 5368732 5368747 5368746 5368747 5368748 5368717 5368718 5368719 5368718 10737418 10737418 999999 0 5368758 5368757 5368758 5368759 5368738 5368739 5368740 5368739 5368716 5368717 5368718 5368717 5368726 5368727 5368728 5368727 5368734 5368733 5368734 5368735 
5368709 5368709 5368709 5368740 5368739 5368740 5368741 5368732 5368733 5368732 5368731 5368746 5368745 5368746 5368747 5368718 5368719 5368718 5368717 0 10737418 10737418 999999 5368757 5368756 5368757 5368758 5368739 5368740 5368739 5368738 5368717 5368718 5368717 5368716 5368727 5368728 5368727 5368726 5368735 5368734 5368733 5368734 
5368709 5368709 5368709 5368729 5368730 5368729 5368728 5368753 5368754 5368753 5368752 5368723 5368722 5368721 5368722 5368753 5368754 5368753 5368752 5368758 5368759 5368758 5368757 999999 0 10737418 10737418 5368736 5368737 5368736 5368735 5368758 5368759 5368758 5368757 5368762 5368763 5368762 5368761 5368742 5368741 5368740 5368741 
5368709 5368709 5368709 5368728 5368729 5368728 5368727 5368752 5368753 5368752 5368751 5368722 5368721 5368720 5368721 5368752 5368753 5368752 5368751 5368757 5368758 5368757 5368756 10737418 999999 0 10737418 5368735 5368736 5368735 5368734 5368757 5368758 5368757 5368756 5368761 5368762 5368761 5368760 5368741 5368740 5368739 5368740 
5368709 5368709 5368709 5368729 5368728 5368727 5368728 5368753 5368752 5368751 5368752 5368723 5368722 5368721 5368722 5368753 5368752 5368751 5368752 5368758 5368757 5368756 5368757 10737418 10737418 999999 0 5368736 5368735 5368734 5368735 5368758 5368757 5368756 5368757 5368762 5368761 5368760 5368761 5368742 5368741 5368740 5368741 
5368709 5368709 5368709 5368730 5368729 5368728 5368729 5368754 5368753 5368752 5368753 5368724 5368723 5368722 5368723 5368754 5368753 5368752 5368753 5368759 5368758 5368757 5368758 0 10737418 10737418 999999 5368737 5368736 5368735 5368736 5368759 5368758 5368757 5368758 5368763 5368762 5368761 5368762 5368743 5368742 5368741 5368742 
5368709 5368709 5368709 5368739 5368738 5368737 5368738 5368729 5368730 5368729 5368728 5368743 5368742 5368741 5368742 5368733 5368732 5368731 5368732 5368740 5368739 5368738 5368739 5368734 5368735 5368736 5368735 999999 0 10737418 10737418 5368734 5368733 5368732 5368733 5368738 5368739 5368738 5368737 5368762 5368761 5368760 5368761 
5368709 5368709 5368709 5368738 5368737 5368738 5368739 5368728 5368729 5368728 5368727 5368742 5368741 5368742 5368743 5368732 5368731 5368732 5368733 5368739 5368738 5368739 5368740 5368735 5368736 5368737 5368736 10737418 999999 0 10737418 5368733 5368732 5368731 5368732 5368737 5368738 5368737 5368736 5368761 5368760 5368761 5368762 
5368709 5368709 5368709 5368739 5368738 5368739 5368740 5368729 5368728 5368727 5368728 5368743 5368742 5368743 5368744 5368733 5368732 5368733 5368734 5368740 5368739 5368740 5368741 5368736 5368735 5368736 5368737 10737418 10737418 999999 0 5368734 5368733 5368732 5368733 5368738 5368737 5368736 5368737 5368762 5368761 5368762 5368763 
5368709 5368709 5368709 5368740 5368739 5368738 5368739 5368730 5368729 5368728 5368729 5368744 5368743 5368742 5368743 5368734 5368733 5368732 5368733 5368741 5368740 5368739 5368740 5368735 5368734 5368735 5368736 0 10737418 10737418 999999 5368735 5368734 5368733 5368734 5368739 5368738 5368737 5368738 5368763 5368762 5368761 5368762 
5368709 5368709 5368709 5368739 5368740 5368741 5368740 5368727 5368728 5368727 5368726 5368745 5368746 5368747 5368746 5368715 5368716 5368717 5368716 5368718 5368717 5368716 5368717 5368756 5368757 5368758 5368757 5368732 5368733 5368734 5368733 999999 0 10737418 10737418 5368722 5368723 5368722 5368721 5368740 5368739 5368738 5368739 
5368709 5368709 5368709 5368740 5368741 5368742 5368741 5368726 5368727 5368728 5368727 5368746 5368747 5368748 5368747 5368716 5368717 5368718 5368717 5368717 5368716 5368717 5368718 5368757 5368758 5368759 5368758 5368733 5368734 5368735 5368734 10737418 999999 0 10737418 5368721 5368722 5368723 5368722 5368739 5368738 5368739 5368740 
5368709 5368709 5368709 5368741 5368740 5368741 5368742 5368725 5368726 5368727 5368726 5368747 5368746 5368747 5368748 5368717 5368716 5368717 5368718 5368718 5368717 5368718 5368719 5368758 5368757 5368758 5368759 5368732 5368733 5368734 5368733 10737418 10737418 999999 0 5368720 5368721 5368722 5368721 5368740 5368739 5368740 5368741 
5368709 5368709 5368709 5368740 5368739 5368740 5368741 5368726 5368727 5368726 5368725 5368746 5368745 5368746 5368747 5368716 5368715 5368716 5368717 5368719 5368718 5368717 5368718 5368757 5368756 5368757 5368758 5368731 5368732 5368733 5368732 0 10737418 10737418 999999 5368721 5368722 5368721 5368720 5368741 5368740 5368739 5368740 
5368709 5368709 5368709 5368743 5368744 5368745 5368744 5368719 5368720 5368721 5368720 5368749 5368750 5368751 5368750 5368719 5368718 5368719 5368720 5368728 5368727 5368726 5368727 5368760 5368761 5368762 5368761 5368736 5368737 5368738 5368737 5368722 5368721 5368720 5368721 999999 0 10737418 10737418 5368750 5368749 5368748 5368749 
5368709 5368709 5368709 5368744 5368745 5368746 5368745 5368720 5368721 5368722 5368721 5368750 5368751 5368752 5368751 5368720 5368719 5368720 5368721 5368727 5368726 5368727 5368728 5368761 5368762 5368763 5368762 5368737 5368738 5368739 5368738 5368721 5368720 5368721 5368722 10737418 999999 0 10737418 5368749 5368748 5368749 5368750 
5368709 5368709 5368709 5368745 5368744 5368745 5368746 5368721 5368720 5368721 5368722 5368751 5368750 5368751 5368752 5368721 5368720 5368721 5368722 5368728 5368727 5368728 5368729 5368762 5368761 5368762 5368763 5368738 5368737 5368738 5368739 5368722 5368721 5368722 5368723 10737418 10737418 999999 0 5368750 5368749 5368750 5368751 
5368709 5368709 5368709 5368744 5368743 5368744 5368745 5368720 5368719 5368720 5368721 5368750 5368749 5368750 5368751 5368720 5368719 5368720 5368721 5368729 5368728 5368727 5368728 5368761 5368760 5368761 5368762 5368737 5368736 5368737 5368738 5368723 5368722 5368721 5368722 0 10737418 10737418 999999 5368751 5368750 5368749 5368750 
5368709 5368709 5368709 5368735 5368736 5368735 5368734 5368755 5368756 5368755 5368754 5368729 5368730 5368731 5368730 5368741 5368742 5368741 5368740 5368734 5368735 5368734 5368733 5368740 5368741 5368742 5368741 5368762 5368763 5368762 5368761 5368740 5368741 5368740 5368739 5368750 5368751 5368750 5368749 999999 0 10737418 10737418 
5368709 5368709 5368709 5368734 5368735 5368736 5368735 5368754 5368755 5368756 5368755 5368730 5368731 5368732 5368731 5368740 5368741 5368742 5368741 5368733 5368734 5368735 5368734 5368741 5368742 5368743 5368742 5368761 5368762 5368763 5368762 5368739 5368740 5368741 5368740 5368749 5368750 5368751 5368750 10737418 999999 0 10737418 
5368709 5368709 5368709 5368733 5368734 5368735 5368734 5368753 5368754 5368755 5368754 5368729 5368730 5368731 5368730 5368739 5368740 5368741 5368740 5368732 5368733 5368734 5368733 5368740 5368741 5368742 5368741 5368760 5368761 5368762 5368761 5368738 5368739 5368740 5368739 5368748 5368749 5368750 5368749 10737418 10737418 999999 0 
5368709 5368709 5368709 5368734 5368735 5368734 5368733 5368754 5368755 5368754 5368753 5368728 5368729 5368730 5368729 5368740 5368741 5368740 5368739 5368733 5368734 5368733 5368732 5368739 5368740 5368741 5368740 5368761 5368762 5368761 5368760 5368739 5368740 5368739 5368738 5368749 5368750 5368749 5368748 0 10737418 10737418 999999 
EOF
