pRobustCbss/GLKH-1.1/TMP/mtspf.pid6805.tour
NAME : mtspf.pid6805.gtsp.69793306.tour
COMMENT : Length = 69793306
COMMENT : Found by LKH [Keld Helsgaun] Fri Jan 10 23:24:48 2025
TYPE : TOUR
DIMENSION : 43
TOUR_SECTION
1
42
43
40
41
2
25
26
27
24
14
15
12
13
7
4
5
6
3
31
28
29
30
11
8
9
10
37
38
39
36
17
18
19
16
34
35
32
33
21
22
23
20
-1
EOF
